
Gurobi 8.0.1 (linux64, Python) logging started Fri 19 Oct 2018 08:10:19 PM EDT

Academic license - for non-commercial use only

Gurobi 8.0.1 (linux64, Python) logging started Thu 03 Jan 2019 11:21:01 AM EST

Academic license - for non-commercial use only
